c defined variables: 4 9 13 18 22 27 31 35 36 37 38 42 46 51 55 59 64 68 72 73 74 78 82 86 87 88 89 93 97 101 105 109 113 114 118 119 120 124 128 132 133 134 138 142 146 147 148 149 153 157 161 162 163 164 168 172 173 174 178 182 186 187 188 192 196 197 198 202 206 207 208 212 216 220 224 228 232 236 240 241 242 243 247 251 255 259 263 267 271 275 276 277 281 285 289 290 291 292 296 300 304 308 312 316 317 321 322 323 327 331 335 336 337 341 345 349 350 351 352 356 360 364 365 366 367 371 375 376 377 381 385 389 390 391 395 399 400 401 405 412 413 414 420 421 423 424 425 426 429 430 431 432 435 436 437 438 441 442 445 446 450 453 454 455 456 457 458 461 
p cnf 1526 1732
a 359 370 374 363 408 388 394 404 417 398 58 62 77 67 81 54 49 92 34 96 411 330 340 266 262 270 280 303 344 288 274 21 25 45 16 41 30 12 1 6 355 380 307 326 315 311 320 334 348 384 223 250 219 205 215 211 201 185 195 191 50 7 26 2 3 17 63 8 227 231 246 235 254 295 239 299 284 258 123 104 127 137 100 141 85 71 108 112 152 177 167 156 117 131 145 181 160 171 0
e 5 10 11 14 15 19 20 23 24 28 29 32 33 39 40 43 44 47 48 52 53 56 57 60 61 65 66 69 70 75 76 79 80 83 84 90 91 94 95 98 99 102 103 106 107 110 111 115 116 121 122 125 126 129 130 135 136 139 140 143 144 150 151 154 155 158 159 165 166 169 170 175 176 179 180 183 184 189 190 193 194 199 200 203 204 209 210 213 214 217 218 221 222 225 226 229 230 233 234 237 238 244 245 248 249 252 253 256 257 260 261 264 265 268 269 272 273 278 279 282 283 286 287 293 294 297 298 301 302 305 306 309 310 313 314 318 319 324 325 328 329 332 333 338 339 342 343 346 347 353 354 357 358 361 362 368 369 372 373 378 379 382 383 386 387 392 393 396 397 402 403 406 407 409 410 415 416 418 419 422 427 428 433 434 439 440 443 444 447 448 451 452 459 460 4 9 13 18 22 27 31 35 36 37 38 42 46 51 55 59 64 68 72 73 74 78 82 86 87 88 89 93 97 101 105 109 113 114 118 119 120 124 128 132 133 134 138 142 146 147 148 149 153 157 161 162 163 164 168 172 173 174 178 182 186 187 188 192 196 197 198 202 206 207 208 212 216 220 224 228 232 236 240 241 242 243 247 251 255 259 263 267 271 275 276 277 281 285 289 290 291 292 296 300 304 308 312 316 317 321 322 323 327 331 335 336 337 341 345 349 350 351 352 356 360 364 365 366 367 371 375 376 377 381 385 389 390 391 395 399 400 401 405 412 413 414 420 421 423 424 425 426 429 430 431 432 435 436 437 438 441 442 445 446 450 453 454 455 456 457 458 461 1360 1361 1362 1363 1364 1365 1366 1367 1368 1369 1370 1371 1372 1373 1374 1375 1376 1377 1378 1379 1380 1381 1382 1383 1384 1385 1386 1387 1388 1389 1390 1391 1392 1393 1394 1395 1396 1397 1398 1399 1400 1401 1402 1403 1404 1405 1406 1407 1408 1409 1410 1411 1412 1413 1414 1415 1416 1417 1418 1419 1420 1421 1422 1423 1424 1425 1426 1427 1428 1429 1430 1431 1432 1433 1434 1435 1436 1437 1438 1439 1440 1441 1442 1443 1444 1445 1446 1447 1448 1449 1450 1451 1452 1453 1454 1455 1456 1457 1458 1459 1460 1461 1462 1463 1464 1465 1466 1467 1468 1469 1470 1471 1472 1473 1474 1475 1476 1477 1478 1479 1480 1481 1482 1483 1484 1485 1486 1487 1488 1489 1490 1491 1492 1493 1494 1495 1496 1497 1498 1499 1500 1501 1502 1503 1504 1505 1506 1507 1508 1509 1510 1511 1512 1513 1514 1515 1516 1517 1518 1519 1520 1521 1522 1523 1524 1525 1526 0
d 449 417 408 0
1361 -4 0
-1361 4 0
1362 -9 0
-1362 9 0
-1365 -13 0
1365 13 0
1366 -18 0
-1366 18 0
1367 -22 0
-1367 22 0
1368 -27 0
-1368 27 0
-1371 -31 0
1371 31 0
-1360 -35 0
1360 35 0
-1360 -36 0
1360 36 0
1363 -37 0
-1363 37 0
-1372 -38 0
1372 38 0
-1375 -42 0
1375 42 0
-1378 -46 0
1378 46 0
1379 -51 0
-1379 51 0
1380 -55 0
-1380 55 0
1381 -59 0
-1381 59 0
1382 -64 0
-1382 64 0
-1385 -68 0
1385 68 0
1373 -72 0
-1373 72 0
1369 -73 0
-1369 73 0
-1386 -74 0
1386 74 0
-1389 -78 0
1389 78 0
-1392 -82 0
1392 82 0
-1360 -86 0
1360 86 0
-1360 -87 0
1360 87 0
1376 -88 0
-1376 88 0
1393 -89 0
-1393 89 0
-1396 -93 0
1396 93 0
-1399 -97 0
1399 97 0
1400 -101 0
-1400 101 0
1401 -105 0
-1401 105 0
1402 -109 0
-1402 109 0
-1360 -113 0
1360 113 0
1403 -114 0
-1403 114 0
1387 -118 0
-1387 118 0
1383 -119 0
-1383 119 0
-1404 -120 0
1404 120 0
-1407 -124 0
1407 124 0
-1410 -128 0
1410 128 0
1394 -132 0
-1394 132 0
1390 -133 0
-1390 133 0
-1411 -134 0
1411 134 0
-1414 -138 0
1414 138 0
-1417 -142 0
1417 142 0
-1360 -146 0
1360 146 0
-1360 -147 0
1360 147 0
1397 -148 0
-1397 148 0
1418 -149 0
-1418 149 0
1419 -153 0
-1419 153 0
1420 -157 0
-1420 157 0
1405 -161 0
-1405 161 0
-1360 -162 0
1360 162 0
-1360 -163 0
1360 163 0
1421 -164 0
-1421 164 0
-1424 -168 0
1424 168 0
1412 -172 0
-1412 172 0
1408 -173 0
-1408 173 0
-1425 -174 0
1425 174 0
-1428 -178 0
1428 178 0
-1431 -182 0
1431 182 0
1432 -186 0
-1432 186 0
1415 -187 0
-1415 187 0
-1433 -188 0
1433 188 0
1434 -192 0
-1434 192 0
1426 -196 0
-1426 196 0
1422 -197 0
-1422 197 0
-1435 -198 0
1435 198 0
-1438 -202 0
1438 202 0
1439 -206 0
-1439 206 0
1429 -207 0
-1429 207 0
-1440 -208 0
1440 208 0
1361 -212 0
-1361 212 0
1362 -216 0
-1362 216 0
-1443 -220 0
1443 220 0
1366 -224 0
-1366 224 0
1367 -228 0
-1367 228 0
1368 -232 0
-1368 232 0
-1446 -236 0
1446 236 0
-1360 -240 0
1360 240 0
-1360 -241 0
1360 241 0
1441 -242 0
-1441 242 0
1447 -243 0
-1447 243 0
-1450 -247 0
1450 247 0
-1453 -251 0
1453 251 0
1379 -255 0
-1379 255 0
1380 -259 0
-1380 259 0
1381 -263 0
-1381 263 0
1382 -267 0
-1382 267 0
-1456 -271 0
1456 271 0
1448 -275 0
-1448 275 0
1444 -276 0
-1444 276 0
-1457 -277 0
1457 277 0
-1460 -281 0
1460 281 0
-1463 -285 0
1463 285 0
-1360 -289 0
1360 289 0
-1360 -290 0
1360 290 0
1451 -291 0
-1451 291 0
1464 -292 0
-1464 292 0
-1467 -296 0
1467 296 0
-1470 -300 0
1470 300 0
1400 -304 0
-1400 304 0
1401 -308 0
-1401 308 0
1402 -312 0
-1402 312 0
-1360 -316 0
1360 316 0
1471 -317 0
-1471 317 0
1458 -321 0
-1458 321 0
1454 -322 0
-1454 322 0
-1472 -323 0
1472 323 0
-1475 -327 0
1475 327 0
-1478 -331 0
1478 331 0
1465 -335 0
-1465 335 0
1461 -336 0
-1461 336 0
-1479 -337 0
1479 337 0
-1482 -341 0
1482 341 0
-1485 -345 0
1485 345 0
-1360 -349 0
1360 349 0
-1360 -350 0
1360 350 0
1468 -351 0
-1468 351 0
1486 -352 0
-1486 352 0
1419 -356 0
-1419 356 0
1420 -360 0
-1420 360 0
1473 -364 0
-1473 364 0
-1360 -365 0
1360 365 0
-1360 -366 0
1360 366 0
1487 -367 0
-1487 367 0
-1490 -371 0
1490 371 0
1480 -375 0
-1480 375 0
1476 -376 0
-1476 376 0
-1491 -377 0
1491 377 0
-1494 -381 0
1494 381 0
-1497 -385 0
1497 385 0
1498 -389 0
-1498 389 0
1483 -390 0
-1483 390 0
-1499 -391 0
1499 391 0
1434 -395 0
-1434 395 0
1492 -399 0
-1492 399 0
1488 -400 0
-1488 400 0
-1500 -401 0
1500 401 0
-1503 -405 0
1503 405 0
1504 -412 0
-1504 412 0
1495 -413 0
-1495 413 0
-1505 -414 0
1505 414 0
1506 -420 0
-1506 420 0
1506 -421 0
-1506 421 0
-1360 -423 0
1360 423 0
1507 -424 0
-1507 424 0
-1360 -425 0
1360 425 0
1508 -426 0
-1508 426 0
-1360 -429 0
1360 429 0
1509 -430 0
-1509 430 0
-1360 -431 0
1360 431 0
1510 -432 0
-1510 432 0
-1360 -435 0
1360 435 0
1511 -436 0
-1511 436 0
-1360 -437 0
1360 437 0
1512 -438 0
-1512 438 0
-1514 -441 0
1514 441 0
-1516 -442 0
1516 442 0
-1518 -445 0
1518 445 0
-1520 -446 0
1520 446 0
-1523 -450 0
1523 450 0
1524 -453 0
-1524 453 0
1501 -454 0
-1501 454 0
-1525 -455 0
1525 455 0
1521 -456 0
-1521 456 0
1436 -457 0
-1436 457 0
-1526 -458 0
1526 458 0
1360 -461 0
-1360 461 0
461 0
-461 419 460 0
-419 416 -418 0
-416 410 -415 0
-410 407 -409 0
-407 403 -406 0
-403 397 -402 0
-397 393 -396 0
-393 387 -392 0
-387 383 -386 0
-383 379 -382 0
-379 373 -378 0
-373 369 -372 0
-369 362 -368 0
-362 358 -361 0
-358 354 -357 0
-354 347 -353 0
-347 343 -346 0
-343 339 -342 0
-339 333 -338 0
-333 329 -332 0
-329 325 -328 0
-325 319 -324 0
-319 314 -318 0
-314 310 -313 0
-310 306 -309 0
-306 302 -305 0
-302 298 -301 0
-298 294 -297 0
-294 287 -293 0
-287 283 -286 0
-283 279 -282 0
-279 273 -278 0
-273 269 -272 0
-269 265 -268 0
-265 261 -264 0
-261 257 -260 0
-257 253 -256 0
-253 249 -252 0
-249 245 -248 0
-245 238 -244 0
-238 234 -237 0
-234 230 -233 0
-230 226 -229 0
-226 222 -225 0
-222 218 -221 0
-218 214 -217 0
-214 210 -213 0
-210 204 -209 0
-204 200 -203 0
-200 194 -199 0
-194 190 -193 0
-190 184 -189 0
-184 180 -183 0
-180 176 -179 0
-176 170 -175 0
-170 166 -169 0
-166 159 -165 0
-159 155 -158 0
-155 151 -154 0
-151 144 -150 0
-144 140 -143 0
-140 136 -139 0
-136 130 -135 0
-130 126 -129 0
-126 122 -125 0
-122 116 -121 0
-116 111 -115 0
-111 107 -110 0
-107 103 -106 0
-103 99 -102 0
-99 95 -98 0
-95 91 -94 0
-91 84 -90 0
-84 80 -83 0
-80 76 -79 0
-76 70 -75 0
-70 66 -69 0
-66 61 -65 0
-61 57 -60 0
-57 53 -56 0
-53 48 -52 0
-48 44 -47 0
-44 40 -43 0
-40 33 -39 0
-33 29 -32 0
-29 24 -28 0
-24 20 -23 0
-20 15 -19 0
-15 11 -14 0
-11 -5 -10 0
1 4 5 0
-1 -4 5 0
-2 -3 4 0
-4 2 0
-4 3 0
6 9 10 0
-6 -9 10 0
-7 -8 9 0
-9 7 0
-9 8 0
12 -13 14 0
-12 13 14 0
-13 -1 6 0
-13 1 -6 0
1 6 13 0
-1 -6 13 0
16 18 19 0
-16 -18 19 0
-2 -17 18 0
-18 2 0
-18 17 0
21 22 23 0
-21 -22 23 0
-7 -3 22 0
-22 7 0
-22 3 0
25 27 28 0
-25 -27 28 0
-26 -8 27 0
-27 26 0
-27 8 0
30 -31 32 0
-30 31 32 0
-31 -21 25 0
-31 21 -25 0
21 25 31 0
-21 -25 31 0
34 38 39 0
-34 -38 39 0
-36 37 38 0
36 -37 38 0
-36 -37 38 0
-12 -35 36 0
-2 2 35 0
-1 -6 37 0
-38 36 37 0
-36 12 0
-36 35 0
-35 2 0
-35 -2 0
-37 1 0
-37 6 0
41 -42 43 0
-41 42 43 0
-42 -30 34 0
-42 30 -34 0
30 34 42 0
-30 -34 42 0
45 -46 47 0
-45 46 47 0
-46 -16 41 0
-46 16 -41 0
16 41 46 0
-16 -41 46 0
49 51 52 0
-49 -51 52 0
-2 -50 51 0
-51 2 0
-51 50 0
54 55 56 0
-54 -55 56 0
-7 -17 55 0
-55 7 0
-55 17 0
58 59 60 0
-58 -59 60 0
-26 -3 59 0
-59 26 0
-59 3 0
62 64 65 0
-62 -64 65 0
-63 -8 64 0
-64 63 0
-64 8 0
67 -68 69 0
-67 68 69 0
-68 -58 62 0
-68 58 -62 0
58 62 68 0
-58 -62 68 0
71 74 75 0
-71 -74 75 0
-72 73 74 0
72 -73 74 0
-72 -73 74 0
-30 -34 72 0
-21 -25 73 0
-74 72 73 0
-72 30 0
-72 34 0
-73 21 0
-73 25 0
77 -78 79 0
-77 78 79 0
-78 -67 71 0
-78 67 -71 0
67 71 78 0
-67 -71 78 0
81 -82 83 0
-81 82 83 0
-82 -54 77 0
-82 54 -77 0
54 77 82 0
-54 -77 82 0
85 89 90 0
-85 -89 90 0
-87 88 89 0
87 -88 89 0
-87 -88 89 0
-45 -86 87 0
-2 2 86 0
-16 -41 88 0
-89 87 88 0
-87 45 0
-87 86 0
-86 2 0
-86 -2 0
-88 16 0
-88 41 0
92 -93 94 0
-92 93 94 0
-93 -81 85 0
-93 81 -85 0
81 85 93 0
-81 -85 93 0
96 -97 98 0
-96 97 98 0
-97 -49 92 0
-97 49 -92 0
49 92 97 0
-49 -92 97 0
100 101 102 0
-100 -101 102 0
-7 -50 101 0
-101 7 0
-101 50 0
104 105 106 0
-104 -105 106 0
-26 -17 105 0
-105 26 0
-105 17 0
108 109 110 0
-108 -109 110 0
-63 -3 109 0
-109 63 0
-109 3 0
112 -114 115 0
-112 114 115 0
-114 -108 113 0
-114 108 -113 0
-113 2 0
-113 -2 0
-2 2 113 0
108 113 114 0
-108 -113 114 0
-2 2 113 0
-113 2 0
-113 -2 0
117 120 121 0
-117 -120 121 0
-118 119 120 0
118 -119 120 0
-118 -119 120 0
-67 -71 118 0
-58 -62 119 0
-120 118 119 0
-118 67 0
-118 71 0
-119 58 0
-119 62 0
123 -124 125 0
-123 124 125 0
-124 -112 117 0
-124 112 -117 0
112 117 124 0
-112 -117 124 0
127 -128 129 0
-127 128 129 0
-128 -104 123 0
-128 104 -123 0
104 123 128 0
-104 -123 128 0
131 134 135 0
-131 -134 135 0
-132 133 134 0
132 -133 134 0
-132 -133 134 0
-81 -85 132 0
-54 -77 133 0
-134 132 133 0
-132 81 0
-132 85 0
-133 54 0
-133 77 0
137 -138 139 0
-137 138 139 0
-138 -127 131 0
-138 127 -131 0
127 131 138 0
-127 -131 138 0
141 -142 143 0
-141 142 143 0
-142 -100 137 0
-142 100 -137 0
100 137 142 0
-100 -137 142 0
145 149 150 0
-145 -149 150 0
-147 148 149 0
147 -148 149 0
-147 -148 149 0
-96 -146 147 0
-2 2 146 0
-49 -92 148 0
-149 147 148 0
-147 96 0
-147 146 0
-146 2 0
-146 -2 0
-148 49 0
-148 92 0
152 153 154 0
-152 -153 154 0
-26 -50 153 0
-153 26 0
-153 50 0
156 157 158 0
-156 -157 158 0
-63 -17 157 0
-157 63 0
-157 17 0
160 164 165 0
-160 -164 165 0
-161 163 164 0
161 -163 164 0
-161 -163 164 0
-112 -117 161 0
-108 -162 163 0
-2 2 162 0
-164 161 163 0
-161 112 0
-161 117 0
-163 108 0
-163 162 0
-162 2 0
-162 -2 0
167 -168 169 0
-167 168 169 0
-168 -156 160 0
-168 156 -160 0
156 160 168 0
-156 -160 168 0
171 174 175 0
-171 -174 175 0
-172 173 174 0
172 -173 174 0
-172 -173 174 0
-127 -131 172 0
-104 -123 173 0
-174 172 173 0
-172 127 0
-172 131 0
-173 104 0
-173 123 0
177 -178 179 0
-177 178 179 0
-178 -167 171 0
-178 167 -171 0
167 171 178 0
-167 -171 178 0
181 -182 183 0
-181 182 183 0
-182 -152 177 0
-182 152 -177 0
152 177 182 0
-152 -177 182 0
185 188 189 0
-185 -188 189 0
-186 187 188 0
186 -187 188 0
-186 -187 188 0
-141 -145 186 0
-100 -137 187 0
-188 186 187 0
-186 141 0
-186 145 0
-187 100 0
-187 137 0
191 192 193 0
-191 -192 193 0
-63 -50 192 0
-192 63 0
-192 50 0
195 198 199 0
-195 -198 199 0
-196 197 198 0
196 -197 198 0
-196 -197 198 0
-167 -171 196 0
-156 -160 197 0
-198 196 197 0
-196 167 0
-196 171 0
-197 156 0
-197 160 0
201 -202 203 0
-201 202 203 0
-202 -191 195 0
-202 191 -195 0
191 195 202 0
-191 -195 202 0
205 208 209 0
-205 -208 209 0
-206 207 208 0
206 -207 208 0
-206 -207 208 0
-181 -185 206 0
-152 -177 207 0
-208 206 207 0
-206 181 0
-206 185 0
-207 152 0
-207 177 0
211 212 213 0
-211 -212 213 0
-2 -3 212 0
-212 2 0
-212 3 0
215 216 217 0
-215 -216 217 0
-7 -8 216 0
-216 7 0
-216 8 0
219 -220 221 0
-219 220 221 0
-220 -211 215 0
-220 211 -215 0
211 215 220 0
-211 -215 220 0
223 224 225 0
-223 -224 225 0
-2 -17 224 0
-224 2 0
-224 17 0
227 228 229 0
-227 -228 229 0
-7 -3 228 0
-228 7 0
-228 3 0
231 232 233 0
-231 -232 233 0
-26 -8 232 0
-232 26 0
-232 8 0
235 -236 237 0
-235 236 237 0
-236 -227 231 0
-236 227 -231 0
227 231 236 0
-227 -231 236 0
239 243 244 0
-239 -243 244 0
-241 242 243 0
241 -242 243 0
-241 -242 243 0
-219 -240 241 0
-2 2 240 0
-211 -215 242 0
-243 241 242 0
-241 219 0
-241 240 0
-240 2 0
-240 -2 0
-242 211 0
-242 215 0
246 -247 248 0
-246 247 248 0
-247 -235 239 0
-247 235 -239 0
235 239 247 0
-235 -239 247 0
250 -251 252 0
-250 251 252 0
-251 -223 246 0
-251 223 -246 0
223 246 251 0
-223 -246 251 0
254 255 256 0
-254 -255 256 0
-2 -50 255 0
-255 2 0
-255 50 0
258 259 260 0
-258 -259 260 0
-7 -17 259 0
-259 7 0
-259 17 0
262 263 264 0
-262 -263 264 0
-26 -3 263 0
-263 26 0
-263 3 0
266 267 268 0
-266 -267 268 0
-63 -8 267 0
-267 63 0
-267 8 0
270 -271 272 0
-270 271 272 0
-271 -262 266 0
-271 262 -266 0
262 266 271 0
-262 -266 271 0
274 277 278 0
-274 -277 278 0
-275 276 277 0
275 -276 277 0
-275 -276 277 0
-235 -239 275 0
-227 -231 276 0
-277 275 276 0
-275 235 0
-275 239 0
-276 227 0
-276 231 0
280 -281 282 0
-280 281 282 0
-281 -270 274 0
-281 270 -274 0
270 274 281 0
-270 -274 281 0
284 -285 286 0
-284 285 286 0
-285 -258 280 0
-285 258 -280 0
258 280 285 0
-258 -280 285 0
288 292 293 0
-288 -292 293 0
-290 291 292 0
290 -291 292 0
-290 -291 292 0
-250 -289 290 0
-2 2 289 0
-223 -246 291 0
-292 290 291 0
-290 250 0
-290 289 0
-289 2 0
-289 -2 0
-291 223 0
-291 246 0
295 -296 297 0
-295 296 297 0
-296 -284 288 0
-296 284 -288 0
284 288 296 0
-284 -288 296 0
299 -300 301 0
-299 300 301 0
-300 -254 295 0
-300 254 -295 0
254 295 300 0
-254 -295 300 0
303 304 305 0
-303 -304 305 0
-7 -50 304 0
-304 7 0
-304 50 0
307 308 309 0
-307 -308 309 0
-26 -17 308 0
-308 26 0
-308 17 0
311 312 313 0
-311 -312 313 0
-63 -3 312 0
-312 63 0
-312 3 0
315 -317 318 0
-315 317 318 0
-317 -311 316 0
-317 311 -316 0
-316 2 0
-316 -2 0
-2 2 316 0
311 316 317 0
-311 -316 317 0
-2 2 316 0
-316 2 0
-316 -2 0
320 323 324 0
-320 -323 324 0
-321 322 323 0
321 -322 323 0
-321 -322 323 0
-270 -274 321 0
-262 -266 322 0
-323 321 322 0
-321 270 0
-321 274 0
-322 262 0
-322 266 0
326 -327 328 0
-326 327 328 0
-327 -315 320 0
-327 315 -320 0
315 320 327 0
-315 -320 327 0
330 -331 332 0
-330 331 332 0
-331 -307 326 0
-331 307 -326 0
307 326 331 0
-307 -326 331 0
334 337 338 0
-334 -337 338 0
-335 336 337 0
335 -336 337 0
-335 -336 337 0
-284 -288 335 0
-258 -280 336 0
-337 335 336 0
-335 284 0
-335 288 0
-336 258 0
-336 280 0
340 -341 342 0
-340 341 342 0
-341 -330 334 0
-341 330 -334 0
330 334 341 0
-330 -334 341 0
344 -345 346 0
-344 345 346 0
-345 -303 340 0
-345 303 -340 0
303 340 345 0
-303 -340 345 0
348 352 353 0
-348 -352 353 0
-350 351 352 0
350 -351 352 0
-350 -351 352 0
-299 -349 350 0
-2 2 349 0
-254 -295 351 0
-352 350 351 0
-350 299 0
-350 349 0
-349 2 0
-349 -2 0
-351 254 0
-351 295 0
355 356 357 0
-355 -356 357 0
-26 -50 356 0
-356 26 0
-356 50 0
359 360 361 0
-359 -360 361 0
-63 -17 360 0
-360 63 0
-360 17 0
363 367 368 0
-363 -367 368 0
-364 366 367 0
364 -366 367 0
-364 -366 367 0
-315 -320 364 0
-311 -365 366 0
-2 2 365 0
-367 364 366 0
-364 315 0
-364 320 0
-366 311 0
-366 365 0
-365 2 0
-365 -2 0
370 -371 372 0
-370 371 372 0
-371 -359 363 0
-371 359 -363 0
359 363 371 0
-359 -363 371 0
374 377 378 0
-374 -377 378 0
-375 376 377 0
375 -376 377 0
-375 -376 377 0
-330 -334 375 0
-307 -326 376 0
-377 375 376 0
-375 330 0
-375 334 0
-376 307 0
-376 326 0
380 -381 382 0
-380 381 382 0
-381 -370 374 0
-381 370 -374 0
370 374 381 0
-370 -374 381 0
384 -385 386 0
-384 385 386 0
-385 -355 380 0
-385 355 -380 0
355 380 385 0
-355 -380 385 0
388 391 392 0
-388 -391 392 0
-389 390 391 0
389 -390 391 0
-389 -390 391 0
-344 -348 389 0
-303 -340 390 0
-391 389 390 0
-389 344 0
-389 348 0
-390 303 0
-390 340 0
394 395 396 0
-394 -395 396 0
-63 -50 395 0
-395 63 0
-395 50 0
398 401 402 0
-398 -401 402 0
-399 400 401 0
399 -400 401 0
-399 -400 401 0
-370 -374 399 0
-359 -363 400 0
-401 399 400 0
-399 370 0
-399 374 0
-400 359 0
-400 363 0
404 -405 406 0
-404 405 406 0
-405 -394 398 0
-405 394 -398 0
394 398 405 0
-394 -398 405 0
408 404 409 0
-408 -404 409 0
411 414 415 0
-411 -414 415 0
-412 413 414 0
412 -413 414 0
-412 -413 414 0
-384 -388 412 0
-355 -380 413 0
-414 412 413 0
-412 384 0
-412 388 0
-413 355 0
-413 380 0
417 411 418 0
-417 -411 418 0
-460 452 0
-460 459 0
-452 448 0
-452 451 0
-448 444 0
-448 447 0
-444 440 0
-444 443 0
-440 434 0
-440 439 0
-434 428 0
-434 433 0
-428 422 0
-428 427 0
-422 -420 421 0
-422 420 -421 0
-420 2 0
-420 8 0
-421 2 0
-421 8 0
-2 -8 420 0
-2 -8 421 0
-427 424 -426 0
-427 -424 426 0
219 423 424 0
-219 -423 424 0
-2 2 423 0
-423 2 0
-423 -2 0
12 425 426 0
-12 -425 426 0
-2 2 425 0
-425 2 0
-425 -2 0
-424 -219 423 0
-424 219 -423 0
-423 2 0
-423 -2 0
-2 2 423 0
-426 -12 425 0
-426 12 -425 0
-425 2 0
-425 -2 0
-2 2 425 0
-433 430 -432 0
-433 -430 432 0
250 429 430 0
-250 -429 430 0
-2 2 429 0
-429 2 0
-429 -2 0
45 431 432 0
-45 -431 432 0
-2 2 431 0
-431 2 0
-431 -2 0
-430 -250 429 0
-430 250 -429 0
-429 2 0
-429 -2 0
-2 2 429 0
-432 -45 431 0
-432 45 -431 0
-431 2 0
-431 -2 0
-2 2 431 0
-439 436 -438 0
-439 -436 438 0
299 435 436 0
-299 -435 436 0
-2 2 435 0
-435 2 0
-435 -2 0
96 437 438 0
-96 -437 438 0
-2 2 437 0
-437 2 0
-437 -2 0
-436 -299 435 0
-436 299 -435 0
-435 2 0
-435 -2 0
-2 2 435 0
-438 -96 437 0
-438 96 -437 0
-437 2 0
-437 -2 0
-2 2 437 0
-443 441 -442 0
-443 -441 442 0
344 348 441 0
-344 -348 441 0
141 145 442 0
-141 -145 442 0
-441 -344 348 0
-441 344 -348 0
-442 -141 145 0
-442 141 -145 0
-447 445 -446 0
-447 -445 446 0
384 388 445 0
-384 -388 445 0
181 185 446 0
-181 -185 446 0
-445 -384 388 0
-445 384 -388 0
-446 -181 185 0
-446 181 -185 0
-451 -449 -450 0
-451 449 450 0
201 205 450 0
-201 -205 450 0
-450 -201 205 0
-450 201 -205 0
-459 -455 458 0
-459 455 -458 0
-455 453 454 0
-453 404 0
-453 411 0
-454 394 0
-454 398 0
-458 456 457 0
-456 201 0
-456 205 0
-457 191 0
-457 195 0
-453 454 455 0
453 -454 455 0
-453 -454 455 0
-404 -411 453 0
-394 -398 454 0
-456 457 458 0
456 -457 458 0
-456 -457 458 0
-201 -205 456 0
-191 -195 457 0
1360 0
2 -1361 0
3 -1361 0
-2 -3 1361 0
7 -1362 0
8 -1362 0
-7 -8 1362 0
1 -1363 0
6 -1363 0
-1 -6 1363 0
-1 -1364 0
-6 -1364 0
1 6 1364 0
-1363 -1365 0
-1364 -1365 0
1363 1364 1365 0
2 -1366 0
17 -1366 0
-2 -17 1366 0
7 -1367 0
3 -1367 0
-7 -3 1367 0
26 -1368 0
8 -1368 0
-26 -8 1368 0
21 -1369 0
25 -1369 0
-21 -25 1369 0
-21 -1370 0
-25 -1370 0
21 25 1370 0
-1369 -1371 0
-1370 -1371 0
1369 1370 1371 0
-36 -1372 0
-37 -1372 0
36 37 1372 0
34 -1373 0
30 -1373 0
-34 -30 1373 0
-34 -1374 0
-30 -1374 0
34 30 1374 0
-1373 -1375 0
-1374 -1375 0
1373 1374 1375 0
16 -1376 0
41 -1376 0
-16 -41 1376 0
-16 -1377 0
-41 -1377 0
16 41 1377 0
-1376 -1378 0
-1377 -1378 0
1376 1377 1378 0
50 -1379 0
2 -1379 0
-50 -2 1379 0
7 -1380 0
17 -1380 0
-7 -17 1380 0
26 -1381 0
3 -1381 0
-26 -3 1381 0
63 -1382 0
8 -1382 0
-63 -8 1382 0
58 -1383 0
62 -1383 0
-58 -62 1383 0
-58 -1384 0
-62 -1384 0
58 62 1384 0
-1383 -1385 0
-1384 -1385 0
1383 1384 1385 0
-72 -1386 0
-73 -1386 0
72 73 1386 0
67 -1387 0
71 -1387 0
-67 -71 1387 0
-67 -1388 0
-71 -1388 0
67 71 1388 0
-1387 -1389 0
-1388 -1389 0
1387 1388 1389 0
77 -1390 0
54 -1390 0
-77 -54 1390 0
-77 -1391 0
-54 -1391 0
77 54 1391 0
-1390 -1392 0
-1391 -1392 0
1390 1391 1392 0
-87 -1393 0
88 -1393 0
87 -88 1393 0
81 -1394 0
85 -1394 0
-81 -85 1394 0
-81 -1395 0
-85 -1395 0
81 85 1395 0
-1394 -1396 0
-1395 -1396 0
1394 1395 1396 0
49 -1397 0
92 -1397 0
-49 -92 1397 0
-49 -1398 0
-92 -1398 0
49 92 1398 0
-1397 -1399 0
-1398 -1399 0
1397 1398 1399 0
50 -1400 0
7 -1400 0
-50 -7 1400 0
26 -1401 0
17 -1401 0
-26 -17 1401 0
3 -1402 0
63 -1402 0
-3 -63 1402 0
-108 -1403 0
-113 -1403 0
108 113 1403 0
-118 -1404 0
-119 -1404 0
118 119 1404 0
112 -1405 0
117 -1405 0
-112 -117 1405 0
-112 -1406 0
-117 -1406 0
112 117 1406 0
-1405 -1407 0
-1406 -1407 0
1405 1406 1407 0
123 -1408 0
104 -1408 0
-123 -104 1408 0
-123 -1409 0
-104 -1409 0
123 104 1409 0
-1408 -1410 0
-1409 -1410 0
1408 1409 1410 0
-132 -1411 0
-133 -1411 0
132 133 1411 0
127 -1412 0
131 -1412 0
-127 -131 1412 0
-127 -1413 0
-131 -1413 0
127 131 1413 0
-1412 -1414 0
-1413 -1414 0
1412 1413 1414 0
137 -1415 0
100 -1415 0
-137 -100 1415 0
-137 -1416 0
-100 -1416 0
137 100 1416 0
-1415 -1417 0
-1416 -1417 0
1415 1416 1417 0
-147 -1418 0
148 -1418 0
147 -148 1418 0
50 -1419 0
26 -1419 0
-50 -26 1419 0
17 -1420 0
63 -1420 0
-17 -63 1420 0
161 -1421 0
-163 -1421 0
-161 163 1421 0
156 -1422 0
160 -1422 0
-156 -160 1422 0
-156 -1423 0
-160 -1423 0
156 160 1423 0
-1422 -1424 0
-1423 -1424 0
1422 1423 1424 0
-172 -1425 0
-173 -1425 0
172 173 1425 0
167 -1426 0
171 -1426 0
-167 -171 1426 0
-167 -1427 0
-171 -1427 0
167 171 1427 0
-1426 -1428 0
-1427 -1428 0
1426 1427 1428 0
152 -1429 0
177 -1429 0
-152 -177 1429 0
-152 -1430 0
-177 -1430 0
152 177 1430 0
-1429 -1431 0
-1430 -1431 0
1429 1430 1431 0
141 -1432 0
145 -1432 0
-141 -145 1432 0
-186 -1433 0
-187 -1433 0
186 187 1433 0
50 -1434 0
63 -1434 0
-50 -63 1434 0
-196 -1435 0
-197 -1435 0
196 197 1435 0
195 -1436 0
191 -1436 0
-195 -191 1436 0
-195 -1437 0
-191 -1437 0
195 191 1437 0
-1436 -1438 0
-1437 -1438 0
1436 1437 1438 0
185 -1439 0
181 -1439 0
-185 -181 1439 0
-206 -1440 0
-207 -1440 0
206 207 1440 0
215 -1441 0
211 -1441 0
-215 -211 1441 0
-215 -1442 0
-211 -1442 0
215 211 1442 0
-1441 -1443 0
-1442 -1443 0
1441 1442 1443 0
227 -1444 0
231 -1444 0
-227 -231 1444 0
-227 -1445 0
-231 -1445 0
227 231 1445 0
-1444 -1446 0
-1445 -1446 0
1444 1445 1446 0
-241 -1447 0
242 -1447 0
241 -242 1447 0
235 -1448 0
239 -1448 0
-235 -239 1448 0
-235 -1449 0
-239 -1449 0
235 239 1449 0
-1448 -1450 0
-1449 -1450 0
1448 1449 1450 0
223 -1451 0
246 -1451 0
-223 -246 1451 0
-223 -1452 0
-246 -1452 0
223 246 1452 0
-1451 -1453 0
-1452 -1453 0
1451 1452 1453 0
266 -1454 0
262 -1454 0
-266 -262 1454 0
-266 -1455 0
-262 -1455 0
266 262 1455 0
-1454 -1456 0
-1455 -1456 0
1454 1455 1456 0
-275 -1457 0
-276 -1457 0
275 276 1457 0
270 -1458 0
274 -1458 0
-270 -274 1458 0
-270 -1459 0
-274 -1459 0
270 274 1459 0
-1458 -1460 0
-1459 -1460 0
1458 1459 1460 0
280 -1461 0
258 -1461 0
-280 -258 1461 0
-280 -1462 0
-258 -1462 0
280 258 1462 0
-1461 -1463 0
-1462 -1463 0
1461 1462 1463 0
-290 -1464 0
291 -1464 0
290 -291 1464 0
288 -1465 0
284 -1465 0
-288 -284 1465 0
-288 -1466 0
-284 -1466 0
288 284 1466 0
-1465 -1467 0
-1466 -1467 0
1465 1466 1467 0
254 -1468 0
295 -1468 0
-254 -295 1468 0
-254 -1469 0
-295 -1469 0
254 295 1469 0
-1468 -1470 0
-1469 -1470 0
1468 1469 1470 0
-311 -1471 0
-316 -1471 0
311 316 1471 0
-321 -1472 0
-322 -1472 0
321 322 1472 0
315 -1473 0
320 -1473 0
-315 -320 1473 0
-315 -1474 0
-320 -1474 0
315 320 1474 0
-1473 -1475 0
-1474 -1475 0
1473 1474 1475 0
307 -1476 0
326 -1476 0
-307 -326 1476 0
-307 -1477 0
-326 -1477 0
307 326 1477 0
-1476 -1478 0
-1477 -1478 0
1476 1477 1478 0
-335 -1479 0
-336 -1479 0
335 336 1479 0
330 -1480 0
334 -1480 0
-330 -334 1480 0
-330 -1481 0
-334 -1481 0
330 334 1481 0
-1480 -1482 0
-1481 -1482 0
1480 1481 1482 0
340 -1483 0
303 -1483 0
-340 -303 1483 0
-340 -1484 0
-303 -1484 0
340 303 1484 0
-1483 -1485 0
-1484 -1485 0
1483 1484 1485 0
-350 -1486 0
351 -1486 0
350 -351 1486 0
364 -1487 0
-366 -1487 0
-364 366 1487 0
359 -1488 0
363 -1488 0
-359 -363 1488 0
-359 -1489 0
-363 -1489 0
359 363 1489 0
-1488 -1490 0
-1489 -1490 0
1488 1489 1490 0
-375 -1491 0
-376 -1491 0
375 376 1491 0
370 -1492 0
374 -1492 0
-370 -374 1492 0
-370 -1493 0
-374 -1493 0
370 374 1493 0
-1492 -1494 0
-1493 -1494 0
1492 1493 1494 0
355 -1495 0
380 -1495 0
-355 -380 1495 0
-355 -1496 0
-380 -1496 0
355 380 1496 0
-1495 -1497 0
-1496 -1497 0
1495 1496 1497 0
344 -1498 0
348 -1498 0
-344 -348 1498 0
-389 -1499 0
-390 -1499 0
389 390 1499 0
-399 -1500 0
-400 -1500 0
399 400 1500 0
394 -1501 0
398 -1501 0
-394 -398 1501 0
-394 -1502 0
-398 -1502 0
394 398 1502 0
-1501 -1503 0
-1502 -1503 0
1501 1502 1503 0
388 -1504 0
384 -1504 0
-388 -384 1504 0
-412 -1505 0
-413 -1505 0
412 413 1505 0
2 -1506 0
8 -1506 0
-2 -8 1506 0
-219 -1507 0
-423 -1507 0
219 423 1507 0
-12 -1508 0
-425 -1508 0
12 425 1508 0
-250 -1509 0
-429 -1509 0
250 429 1509 0
-45 -1510 0
-431 -1510 0
45 431 1510 0
-299 -1511 0
-435 -1511 0
299 435 1511 0
-96 -1512 0
-437 -1512 0
96 437 1512 0
-344 -1513 0
-348 -1513 0
344 348 1513 0
-1498 -1514 0
-1513 -1514 0
1498 1513 1514 0
-141 -1515 0
-145 -1515 0
141 145 1515 0
-1432 -1516 0
-1515 -1516 0
1432 1515 1516 0
-388 -1517 0
-384 -1517 0
388 384 1517 0
-1504 -1518 0
-1517 -1518 0
1504 1517 1518 0
-185 -1519 0
-181 -1519 0
185 181 1519 0
-1439 -1520 0
-1519 -1520 0
1439 1519 1520 0
205 -1521 0
201 -1521 0
-205 -201 1521 0
-205 -1522 0
-201 -1522 0
205 201 1522 0
-1521 -1523 0
-1522 -1523 0
1521 1522 1523 0
404 -1524 0
411 -1524 0
-404 -411 1524 0
-453 -1525 0
-454 -1525 0
453 454 1525 0
-456 -1526 0
-457 -1526 0
456 457 1526 0
